data;

param n:=24;
param p:=3;
param r:=[1] 0 [2] 1 [3] 2 [4] 6 [5] 8 [6] 12 [7] 0 [8] 5 [9] 10 [10] 11 [11] 18 [12] 2 [13] 13 [14] 12 [15] 41 [16] 43 [17] 21 [18] 32 [19] 50 [20] 46 [21] 0 [22] 63 [23] 10 [24] 20 ;
param w:=[1] 17 [2] 45 [3] 70 [4] 91 [5] 58 [6] 33 [7] 29 [8] 70 [9] 66 [10] 87 [11] 29 [12] 88 [13] 97 [14] 76 [15] 84 [16] 58 [17] 64 [18] 46 [19] 74 [20] 3 [21] 91 [22] 15 [23] 10 [24] 84 ;

end;
